db/data/236831405316521945466772921212093986.z3.out
sat
-------------------
190.937125408
